unknown
(model
; cardinality of BoundSet is 1
(declare-sort BoundSet 0)
; rep: @uc_BoundSet_0
; cardinality of UnboundSet is 1
(declare-sort UnboundSet 0)
(declare-fun groundTerm_2 () UnboundSet)
(define-fun CausesIncreaseInPrecipitation ((BOUND_VARIABLE_378 BoundSet)) Bool true)
(define-fun CausesIncreaseInSoilMoisture ((BOUND_VARIABLE_378 BoundSet)) Bool true)
(define-fun CreatesSaferWorld ((BOUND_VARIABLE_378 BoundSet)) Bool false)
(define-fun CreatesPeacefulWorld ((BOUND_VARIABLE_378 BoundSet)) Bool false)
)
sat
(model
; cardinality of BoundSet is 1
(declare-sort BoundSet 0)
; rep: @uc_BoundSet_0
; cardinality of UnboundSet is 1
(declare-sort UnboundSet 0)
(declare-fun groundTerm_4 () UnboundSet)
(define-fun CausesIncreaseInPrecipitation ((BOUND_VARIABLE_413 BoundSet)) Bool true)
(define-fun CausesIncreaseInSoilMoisture ((BOUND_VARIABLE_413 BoundSet)) Bool true)
(define-fun CreatesSaferWorld ((BOUND_VARIABLE_413 BoundSet)) Bool false)
(define-fun CreatesPeacefulWorld ((BOUND_VARIABLE_413 BoundSet)) Bool true)
)
